\ENCODING=ISO-8859-1
\Problem name: IloCplex

Minimize
 obj: 30 p_1 + 3000 y_1 + 3 I_0_1 + 8 I_1_1 + 6 I_2_1 + 9 I_3_1 + 6 I_4_1
      + 9 I_5_1 + 6 I_6_1 + 8 I_7_1 + 8 I_8_1 + 8 I_9_1 + 8 I_10_1 + 6 I_11_1
      + 7 I_12_1 + 6 I_13_1 + 6 I_14_1 + 30 p_2 + 3000 y_2 + 3 I_0_2 + 8 I_1_2
      + 6 I_2_2 + 9 I_3_2 + 6 I_4_2 + 9 I_5_2 + 6 I_6_2 + 8 I_7_2 + 8 I_8_2
      + 8 I_9_2 + 8 I_10_2 + 6 I_11_2 + 7 I_12_2 + 6 I_13_2 + 6 I_14_2 + 30 p_3
      + 3000 y_3 + 3 I_0_3 + 8 I_1_3 + 6 I_2_3 + 9 I_3_3 + 6 I_4_3 + 9 I_5_3
      + 6 I_6_3 + 8 I_7_3 + 8 I_8_3 + 8 I_9_3 + 8 I_10_3 + 6 I_11_3 + 7 I_12_3
      + 6 I_13_3 + 6 I_14_3 + 30 p_4 + 3000 y_4 + 3 I_0_4 + 8 I_1_4 + 6 I_2_4
      + 9 I_3_4 + 6 I_4_4 + 9 I_5_4 + 6 I_6_4 + 8 I_7_4 + 8 I_8_4 + 8 I_9_4
      + 8 I_10_4 + 6 I_11_4 + 7 I_12_4 + 6 I_13_4 + 6 I_14_4 + 30 p_5
      + 3000 y_5 + 3 I_0_5 + 8 I_1_5 + 6 I_2_5 + 9 I_3_5 + 6 I_4_5 + 9 I_5_5
      + 6 I_6_5 + 8 I_7_5 + 8 I_8_5 + 8 I_9_5 + 8 I_10_5 + 6 I_11_5 + 7 I_12_5
      + 6 I_13_5 + 6 I_14_5 + 768 z_1_0 + 768 z_1_1 + 768 z_1_2 + 768 z_1_3
      + 768 z_1_4 + 768 z_1_5 + 544 z_2_0 + 544 z_2_1 + 544 z_2_2 + 544 z_2_3
      + 544 z_2_4 + 544 z_2_5 + 322 z_3_0 + 322 z_3_1 + 322 z_3_2 + 322 z_3_3
      + 322 z_3_4 + 322 z_3_5 + 204 z_4_0 + 204 z_4_1 + 204 z_4_2 + 204 z_4_3
      + 204 z_4_4 + 204 z_4_5 + 312 z_5_0 + 312 z_5_1 + 312 z_5_2 + 312 z_5_3
      + 312 z_5_4 + 312 z_5_5 + 586 z_6_0 + 586 z_6_1 + 586 z_6_2 + 586 z_6_3
      + 586 z_6_4 + 586 z_6_5 + 866 z_7_0 + 866 z_7_1 + 866 z_7_2 + 866 z_7_3
      + 866 z_7_4 + 866 z_7_5 + 680 z_8_0 + 680 z_8_1 + 680 z_8_2 + 680 z_8_3
      + 680 z_8_4 + 680 z_8_5 + 878 z_9_0 + 878 z_9_1 + 878 z_9_2 + 878 z_9_3
      + 878 z_9_4 + 878 z_9_5 + 72 z_10_0 + 72 z_10_1 + 72 z_10_2 + 72 z_10_3
      + 72 z_10_4 + 72 z_10_5 + 802 z_11_0 + 802 z_11_1 + 802 z_11_2
      + 802 z_11_3 + 802 z_11_4 + 802 z_11_5 + 400 z_12_0 + 400 z_12_1
      + 400 z_12_2 + 400 z_12_3 + 400 z_12_4 + 400 z_12_5 + 240 z_13_0
      + 240 z_13_1 + 240 z_13_2 + 240 z_13_3 + 240 z_13_4 + 240 z_13_5
Subject To
 A(te1)#0:        p_1 - I_0_1 + I_0_0  = 0
 A(te2)#1:        I_0_1 + p_2 - I_0_2  = 0
 A(te3)#2:        I_0_2 + p_3 - I_0_3  = 0
 A(te4)#3:        I_0_3 + p_4 - I_0_4  = 0
 A(te5)#4:        I_0_4 + p_5 - I_0_5  = 0
 B(Ie1;te1)#5:    - I_1_1 + I_1_0 + q_1_1  = 8
 B(Ie1;te2)#6:    I_1_1 - I_1_2 + q_1_2  = 8
 B(Ie1;te3)#7:    I_1_2 - I_1_3 + q_1_3  = 8
 B(Ie1;te4)#8:    I_1_3 - I_1_4 + q_1_4  = 8
 B(Ie1;te5)#9:    I_1_4 - I_1_5 + q_1_5  = 8
 B(Ie2;te1)#10:   - I_2_1 + I_2_0 + q_2_1  = 7
 B(Ie2;te2)#11:   I_2_1 - I_2_2 + q_2_2  = 7
 B(Ie2;te3)#12:   I_2_2 - I_2_3 + q_2_3  = 7
 B(Ie2;te4)#13:   I_2_3 - I_2_4 + q_2_4  = 7
 B(Ie2;te5)#14:   I_2_4 - I_2_5 + q_2_5  = 7
 B(Ie3;te1)#15:   - I_3_1 + I_3_0 + q_3_1  = 6
 B(Ie3;te2)#16:   I_3_1 - I_3_2 + q_3_2  = 6
 B(Ie3;te3)#17:   I_3_2 - I_3_3 + q_3_3  = 6
 B(Ie3;te4)#18:   I_3_3 - I_3_4 + q_3_4  = 6
 B(Ie3;te5)#19:   I_3_4 - I_3_5 + q_3_5  = 6
 B(Ie4;te1)#20:   - I_4_1 + I_4_0 + q_4_1  = 13
 B(Ie4;te2)#21:   I_4_1 - I_4_2 + q_4_2  = 13
 B(Ie4;te3)#22:   I_4_2 - I_4_3 + q_4_3  = 13
 B(Ie4;te4)#23:   I_4_3 - I_4_4 + q_4_4  = 13
 B(Ie4;te5)#24:   I_4_4 - I_4_5 + q_4_5  = 13
 B(Ie5;te1)#25:   - I_5_1 + I_5_0 + q_5_1  = 18
 B(Ie5;te2)#26:   I_5_1 - I_5_2 + q_5_2  = 18
 B(Ie5;te3)#27:   I_5_2 - I_5_3 + q_5_3  = 18
 B(Ie5;te4)#28:   I_5_3 - I_5_4 + q_5_4  = 18
 B(Ie5;te5)#29:   I_5_4 - I_5_5 + q_5_5  = 18
 B(Ie6;te1)#30:   - I_6_1 + I_6_0 + q_6_1  = 11
 B(Ie6;te2)#31:   I_6_1 - I_6_2 + q_6_2  = 11
 B(Ie6;te3)#32:   I_6_2 - I_6_3 + q_6_3  = 11
 B(Ie6;te4)#33:   I_6_3 - I_6_4 + q_6_4  = 11
 B(Ie6;te5)#34:   I_6_4 - I_6_5 + q_6_5  = 11
 B(Ie7;te1)#35:   - I_7_1 + I_7_0 + q_7_1  = 15
 B(Ie7;te2)#36:   I_7_1 - I_7_2 + q_7_2  = 15
 B(Ie7;te3)#37:   I_7_2 - I_7_3 + q_7_3  = 15
 B(Ie7;te4)#38:   I_7_3 - I_7_4 + q_7_4  = 15
 B(Ie7;te5)#39:   I_7_4 - I_7_5 + q_7_5  = 15
 B(Ie8;te1)#40:   - I_8_1 + I_8_0 + q_8_1  = 20
 B(Ie8;te2)#41:   I_8_1 - I_8_2 + q_8_2  = 20
 B(Ie8;te3)#42:   I_8_2 - I_8_3 + q_8_3  = 20
 B(Ie8;te4)#43:   I_8_3 - I_8_4 + q_8_4  = 20
 B(Ie8;te5)#44:   I_8_4 - I_8_5 + q_8_5  = 20
 B(Ie9;te1)#45:   - I_9_1 + I_9_0 + q_9_1  = 23
 B(Ie9;te2)#46:   I_9_1 - I_9_2 + q_9_2  = 23
 B(Ie9;te3)#47:   I_9_2 - I_9_3 + q_9_3  = 23
 B(Ie9;te4)#48:   I_9_3 - I_9_4 + q_9_4  = 23
 B(Ie9;te5)#49:   I_9_4 - I_9_5 + q_9_5  = 23
 B(Ie10;te1)#50:  - I_10_1 + I_10_0 + q_10_1  = 14
 B(Ie10;te2)#51:  I_10_1 - I_10_2 + q_10_2  = 14
 B(Ie10;te3)#52:  I_10_2 - I_10_3 + q_10_3  = 14
 B(Ie10;te4)#53:  I_10_3 - I_10_4 + q_10_4  = 14
 B(Ie10;te5)#54:  I_10_4 - I_10_5 + q_10_5  = 14
 B(Ie11;te1)#55:  - I_11_1 + I_11_0 + q_11_1  = 22
 B(Ie11;te2)#56:  I_11_1 - I_11_2 + q_11_2  = 22
 B(Ie11;te3)#57:  I_11_2 - I_11_3 + q_11_3  = 22
 B(Ie11;te4)#58:  I_11_3 - I_11_4 + q_11_4  = 22
 B(Ie11;te5)#59:  I_11_4 - I_11_5 + q_11_5  = 22
 B(Ie12;te1)#60:  - I_12_1 + I_12_0 + q_12_1  = 9
 B(Ie12;te2)#61:  I_12_1 - I_12_2 + q_12_2  = 9
 B(Ie12;te3)#62:  I_12_2 - I_12_3 + q_12_3  = 9
 B(Ie12;te4)#63:  I_12_3 - I_12_4 + q_12_4  = 9
 B(Ie12;te5)#64:  I_12_4 - I_12_5 + q_12_5  = 9
 B(Ie13;te1)#65:  - I_13_1 + I_13_0 + q_13_1  = 21
 B(Ie13;te2)#66:  I_13_1 - I_13_2 + q_13_2  = 21
 B(Ie13;te3)#67:  I_13_2 - I_13_3 + q_13_3  = 21
 B(Ie13;te4)#68:  I_13_3 - I_13_4 + q_13_4  = 21
 B(Ie13;te5)#69:  I_13_4 - I_13_5 + q_13_5  = 21
 C(te1)#70:       p_1 - 10000000000 y_1 <= 0
 C(te2)#71:       p_2 - 10000000000 y_2 <= 0
 C(te3)#72:       p_3 - 10000000000 y_3 <= 0
 C(te4)#73:       p_4 - 10000000000 y_4 <= 0
 C(te5)#74:       p_5 - 10000000000 y_5 <= 0
 D(te1)#75:       I_0_0 <= 10000000000
 D(te2)#76:       I_0_1 <= 10000000000
 D(te3)#77:       I_0_2 <= 10000000000
 D(te4)#78:       I_0_3 <= 10000000000
 D(te5)#79:       I_0_4 <= 10000000000
 D(Ie1;te1)#80:   I_1_0 + q_1_1 <= 48
 D(Ie1;te2)#81:   I_1_1 + q_1_2 <= 48
 D(Ie1;te3)#82:   I_1_2 + q_1_3 <= 48
 D(Ie1;te4)#83:   I_1_3 + q_1_4 <= 48
 D(Ie1;te5)#84:   I_1_4 + q_1_5 <= 48
 D(Ie2;te1)#85:   I_2_0 + q_2_1 <= 14
 D(Ie2;te2)#86:   I_2_1 + q_2_2 <= 14
 D(Ie2;te3)#87:   I_2_2 + q_2_3 <= 14
 D(Ie2;te4)#88:   I_2_3 + q_2_4 <= 14
 D(Ie2;te5)#89:   I_2_4 + q_2_5 <= 14
 D(Ie3;te1)#90:   I_3_0 + q_3_1 <= 18
 D(Ie3;te2)#91:   I_3_1 + q_3_2 <= 18
 D(Ie3;te3)#92:   I_3_2 + q_3_3 <= 18
 D(Ie3;te4)#93:   I_3_3 + q_3_4 <= 18
 D(Ie3;te5)#94:   I_3_4 + q_3_5 <= 18
 D(Ie4;te1)#95:   I_4_0 + q_4_1 <= 65
 D(Ie4;te2)#96:   I_4_1 + q_4_2 <= 65
 D(Ie4;te3)#97:   I_4_2 + q_4_3 <= 65
 D(Ie4;te4)#98:   I_4_3 + q_4_4 <= 65
 D(Ie4;te5)#99:   I_4_4 + q_4_5 <= 65
 D(Ie5;te1)#100:  I_5_0 + q_5_1 <= 108
 D(Ie5;te2)#101:  I_5_1 + q_5_2 <= 108
 D(Ie5;te3)#102:  I_5_2 + q_5_3 <= 108
 D(Ie5;te4)#103:  I_5_3 + q_5_4 <= 108
 D(Ie5;te5)#104:  I_5_4 + q_5_5 <= 108
 D(Ie6;te1)#105:  I_6_0 + q_6_1 <= 55
 D(Ie6;te2)#106:  I_6_1 + q_6_2 <= 55
 D(Ie6;te3)#107:  I_6_2 + q_6_3 <= 55
 D(Ie6;te4)#108:  I_6_3 + q_6_4 <= 55
 D(Ie6;te5)#109:  I_6_4 + q_6_5 <= 55
 D(Ie7;te1)#110:  I_7_0 + q_7_1 <= 75
 D(Ie7;te2)#111:  I_7_1 + q_7_2 <= 75
 D(Ie7;te3)#112:  I_7_2 + q_7_3 <= 75
 D(Ie7;te4)#113:  I_7_3 + q_7_4 <= 75
 D(Ie7;te5)#114:  I_7_4 + q_7_5 <= 75
 D(Ie8;te1)#115:  I_8_0 + q_8_1 <= 40
 D(Ie8;te2)#116:  I_8_1 + q_8_2 <= 40
 D(Ie8;te3)#117:  I_8_2 + q_8_3 <= 40
 D(Ie8;te4)#118:  I_8_3 + q_8_4 <= 40
 D(Ie8;te5)#119:  I_8_4 + q_8_5 <= 40
 D(Ie9;te1)#120:  I_9_0 + q_9_1 <= 115
 D(Ie9;te2)#121:  I_9_1 + q_9_2 <= 115
 D(Ie9;te3)#122:  I_9_2 + q_9_3 <= 115
 D(Ie9;te4)#123:  I_9_3 + q_9_4 <= 115
 D(Ie9;te5)#124:  I_9_4 + q_9_5 <= 115
 D(Ie10;te1)#125: I_10_0 + q_10_1 <= 28
 D(Ie10;te2)#126: I_10_1 + q_10_2 <= 28
 D(Ie10;te3)#127: I_10_2 + q_10_3 <= 28
 D(Ie10;te4)#128: I_10_3 + q_10_4 <= 28
 D(Ie10;te5)#129: I_10_4 + q_10_5 <= 28
 D(Ie11;te1)#130: I_11_0 + q_11_1 <= 44
 D(Ie11;te2)#131: I_11_1 + q_11_2 <= 44
 D(Ie11;te3)#132: I_11_2 + q_11_3 <= 44
 D(Ie11;te4)#133: I_11_3 + q_11_4 <= 44
 D(Ie11;te5)#134: I_11_4 + q_11_5 <= 44
 D(Ie12;te1)#135: I_12_0 + q_12_1 <= 27
 D(Ie12;te2)#136: I_12_1 + q_12_2 <= 27
 D(Ie12;te3)#137: I_12_2 + q_12_3 <= 27
 D(Ie12;te4)#138: I_12_3 + q_12_4 <= 27
 D(Ie12;te5)#139: I_12_4 + q_12_5 <= 27
 D(Ie13;te1)#140: I_13_0 + q_13_1 <= 126
 D(Ie13;te2)#141: I_13_1 + q_13_2 <= 126
 D(Ie13;te3)#142: I_13_2 + q_13_3 <= 126
 D(Ie13;te4)#143: I_13_3 + q_13_4 <= 126
 D(Ie13;te5)#144: I_13_4 + q_13_5 <= 126
 Z(Ie1;te1)#145:  - 32767 z_1_1 + q_1_1 <= 0
 Z(Ie1;te2)#146:  - 32767 z_1_2 + q_1_2 <= 0
 Z(Ie1;te3)#147:  - 32767 z_1_3 + q_1_3 <= 0
 Z(Ie1;te4)#148:  - 32767 z_1_4 + q_1_4 <= 0
 Z(Ie1;te5)#149:  - 32767 z_1_5 + q_1_5 <= 0
 Z(Ie2;te1)#150:  - 32767 z_2_1 + q_2_1 <= 0
 Z(Ie2;te2)#151:  - 32767 z_2_2 + q_2_2 <= 0
 Z(Ie2;te3)#152:  - 32767 z_2_3 + q_2_3 <= 0
 Z(Ie2;te4)#153:  - 32767 z_2_4 + q_2_4 <= 0
 Z(Ie2;te5)#154:  - 32767 z_2_5 + q_2_5 <= 0
 Z(Ie3;te1)#155:  - 32767 z_3_1 + q_3_1 <= 0
 Z(Ie3;te2)#156:  - 32767 z_3_2 + q_3_2 <= 0
 Z(Ie3;te3)#157:  - 32767 z_3_3 + q_3_3 <= 0
 Z(Ie3;te4)#158:  - 32767 z_3_4 + q_3_4 <= 0
 Z(Ie3;te5)#159:  - 32767 z_3_5 + q_3_5 <= 0
 Z(Ie4;te1)#160:  - 32767 z_4_1 + q_4_1 <= 0
 Z(Ie4;te2)#161:  - 32767 z_4_2 + q_4_2 <= 0
 Z(Ie4;te3)#162:  - 32767 z_4_3 + q_4_3 <= 0
 Z(Ie4;te4)#163:  - 32767 z_4_4 + q_4_4 <= 0
 Z(Ie4;te5)#164:  - 32767 z_4_5 + q_4_5 <= 0
 Z(Ie5;te1)#165:  - 32767 z_5_1 + q_5_1 <= 0
 Z(Ie5;te2)#166:  - 32767 z_5_2 + q_5_2 <= 0
 Z(Ie5;te3)#167:  - 32767 z_5_3 + q_5_3 <= 0
 Z(Ie5;te4)#168:  - 32767 z_5_4 + q_5_4 <= 0
 Z(Ie5;te5)#169:  - 32767 z_5_5 + q_5_5 <= 0
 Z(Ie6;te1)#170:  - 32767 z_6_1 + q_6_1 <= 0
 Z(Ie6;te2)#171:  - 32767 z_6_2 + q_6_2 <= 0
 Z(Ie6;te3)#172:  - 32767 z_6_3 + q_6_3 <= 0
 Z(Ie6;te4)#173:  - 32767 z_6_4 + q_6_4 <= 0
 Z(Ie6;te5)#174:  - 32767 z_6_5 + q_6_5 <= 0
 Z(Ie7;te1)#175:  - 32767 z_7_1 + q_7_1 <= 0
 Z(Ie7;te2)#176:  - 32767 z_7_2 + q_7_2 <= 0
 Z(Ie7;te3)#177:  - 32767 z_7_3 + q_7_3 <= 0
 Z(Ie7;te4)#178:  - 32767 z_7_4 + q_7_4 <= 0
 Z(Ie7;te5)#179:  - 32767 z_7_5 + q_7_5 <= 0
 Z(Ie8;te1)#180:  - 32767 z_8_1 + q_8_1 <= 0
 Z(Ie8;te2)#181:  - 32767 z_8_2 + q_8_2 <= 0
 Z(Ie8;te3)#182:  - 32767 z_8_3 + q_8_3 <= 0
 Z(Ie8;te4)#183:  - 32767 z_8_4 + q_8_4 <= 0
 Z(Ie8;te5)#184:  - 32767 z_8_5 + q_8_5 <= 0
 Z(Ie9;te1)#185:  - 32767 z_9_1 + q_9_1 <= 0
 Z(Ie9;te2)#186:  - 32767 z_9_2 + q_9_2 <= 0
 Z(Ie9;te3)#187:  - 32767 z_9_3 + q_9_3 <= 0
 Z(Ie9;te4)#188:  - 32767 z_9_4 + q_9_4 <= 0
 Z(Ie9;te5)#189:  - 32767 z_9_5 + q_9_5 <= 0
 Z(Ie10;te1)#190: - 32767 z_10_1 + q_10_1 <= 0
 Z(Ie10;te2)#191: - 32767 z_10_2 + q_10_2 <= 0
 Z(Ie10;te3)#192: - 32767 z_10_3 + q_10_3 <= 0
 Z(Ie10;te4)#193: - 32767 z_10_4 + q_10_4 <= 0
 Z(Ie10;te5)#194: - 32767 z_10_5 + q_10_5 <= 0
 Z(Ie11;te1)#195: - 32767 z_11_1 + q_11_1 <= 0
 Z(Ie11;te2)#196: - 32767 z_11_2 + q_11_2 <= 0
 Z(Ie11;te3)#197: - 32767 z_11_3 + q_11_3 <= 0
 Z(Ie11;te4)#198: - 32767 z_11_4 + q_11_4 <= 0
 Z(Ie11;te5)#199: - 32767 z_11_5 + q_11_5 <= 0
 Z(Ie12;te1)#200: - 32767 z_12_1 + q_12_1 <= 0
 Z(Ie12;te2)#201: - 32767 z_12_2 + q_12_2 <= 0
 Z(Ie12;te3)#202: - 32767 z_12_3 + q_12_3 <= 0
 Z(Ie12;te4)#203: - 32767 z_12_4 + q_12_4 <= 0
 Z(Ie12;te5)#204: - 32767 z_12_5 + q_12_5 <= 0
 Z(Ie13;te1)#205: - 32767 z_13_1 + q_13_1 <= 0
 Z(Ie13;te2)#206: - 32767 z_13_2 + q_13_2 <= 0
 Z(Ie13;te3)#207: - 32767 z_13_3 + q_13_3 <= 0
 Z(Ie13;te4)#208: - 32767 z_13_4 + q_13_4 <= 0
 Z(Ie13;te5)#209: - 32767 z_13_5 + q_13_5 <= 0
Bounds
 0 <= p_1 <= 10000000000
 0 <= y_1 <= 1
 0 <= I_0_1 <= 10000000000
 0 <= I_1_1 <= 48
 0 <= I_2_1 <= 14
 0 <= I_3_1 <= 18
 0 <= I_4_1 <= 65
 0 <= I_5_1 <= 108
 0 <= I_6_1 <= 55
 0 <= I_7_1 <= 75
 0 <= I_8_1 <= 40
 0 <= I_9_1 <= 115
 0 <= I_10_1 <= 28
 0 <= I_11_1 <= 44
 0 <= I_12_1 <= 27
 0 <= I_13_1 <= 126
 0 <= I_14_1 <= 144
 0 <= p_2 <= 10000000000
 0 <= y_2 <= 1
 0 <= I_0_2 <= 10000000000
 0 <= I_1_2 <= 48
 0 <= I_2_2 <= 14
 0 <= I_3_2 <= 18
 0 <= I_4_2 <= 65
 0 <= I_5_2 <= 108
 0 <= I_6_2 <= 55
 0 <= I_7_2 <= 75
 0 <= I_8_2 <= 40
 0 <= I_9_2 <= 115
 0 <= I_10_2 <= 28
 0 <= I_11_2 <= 44
 0 <= I_12_2 <= 27
 0 <= I_13_2 <= 126
 0 <= I_14_2 <= 144
 0 <= p_3 <= 10000000000
 0 <= y_3 <= 1
 0 <= I_0_3 <= 10000000000
 0 <= I_1_3 <= 48
 0 <= I_2_3 <= 14
 0 <= I_3_3 <= 18
 0 <= I_4_3 <= 65
 0 <= I_5_3 <= 108
 0 <= I_6_3 <= 55
 0 <= I_7_3 <= 75
 0 <= I_8_3 <= 40
 0 <= I_9_3 <= 115
 0 <= I_10_3 <= 28
 0 <= I_11_3 <= 44
 0 <= I_12_3 <= 27
 0 <= I_13_3 <= 126
 0 <= I_14_3 <= 144
 0 <= p_4 <= 10000000000
 0 <= y_4 <= 1
 0 <= I_0_4 <= 10000000000
 0 <= I_1_4 <= 48
 0 <= I_2_4 <= 14
 0 <= I_3_4 <= 18
 0 <= I_4_4 <= 65
 0 <= I_5_4 <= 108
 0 <= I_6_4 <= 55
 0 <= I_7_4 <= 75
 0 <= I_8_4 <= 40
 0 <= I_9_4 <= 115
 0 <= I_10_4 <= 28
 0 <= I_11_4 <= 44
 0 <= I_12_4 <= 27
 0 <= I_13_4 <= 126
 0 <= I_14_4 <= 144
 0 <= p_5 <= 10000000000
 0 <= y_5 <= 1
 0 <= I_0_5 <= 10000000000
 0 <= I_1_5 <= 48
 0 <= I_2_5 <= 14
 0 <= I_3_5 <= 18
 0 <= I_4_5 <= 65
 0 <= I_5_5 <= 108
 0 <= I_6_5 <= 55
 0 <= I_7_5 <= 75
 0 <= I_8_5 <= 40
 0 <= I_9_5 <= 115
 0 <= I_10_5 <= 28
 0 <= I_11_5 <= 44
 0 <= I_12_5 <= 27
 0 <= I_13_5 <= 126
 0 <= I_14_5 <= 144
 0 <= z_1_0 <= 1
 0 <= z_1_1 <= 1
 0 <= z_1_2 <= 1
 0 <= z_1_3 <= 1
 0 <= z_1_4 <= 1
 0 <= z_1_5 <= 1
 0 <= z_2_0 <= 1
 0 <= z_2_1 <= 1
 0 <= z_2_2 <= 1
 0 <= z_2_3 <= 1
 0 <= z_2_4 <= 1
 0 <= z_2_5 <= 1
 0 <= z_3_0 <= 1
 0 <= z_3_1 <= 1
 0 <= z_3_2 <= 1
 0 <= z_3_3 <= 1
 0 <= z_3_4 <= 1
 0 <= z_3_5 <= 1
 0 <= z_4_0 <= 1
 0 <= z_4_1 <= 1
 0 <= z_4_2 <= 1
 0 <= z_4_3 <= 1
 0 <= z_4_4 <= 1
 0 <= z_4_5 <= 1
 0 <= z_5_0 <= 1
 0 <= z_5_1 <= 1
 0 <= z_5_2 <= 1
 0 <= z_5_3 <= 1
 0 <= z_5_4 <= 1
 0 <= z_5_5 <= 1
 0 <= z_6_0 <= 1
 0 <= z_6_1 <= 1
 0 <= z_6_2 <= 1
 0 <= z_6_3 <= 1
 0 <= z_6_4 <= 1
 0 <= z_6_5 <= 1
 0 <= z_7_0 <= 1
 0 <= z_7_1 <= 1
 0 <= z_7_2 <= 1
 0 <= z_7_3 <= 1
 0 <= z_7_4 <= 1
 0 <= z_7_5 <= 1
 0 <= z_8_0 <= 1
 0 <= z_8_1 <= 1
 0 <= z_8_2 <= 1
 0 <= z_8_3 <= 1
 0 <= z_8_4 <= 1
 0 <= z_8_5 <= 1
 0 <= z_9_0 <= 1
 0 <= z_9_1 <= 1
 0 <= z_9_2 <= 1
 0 <= z_9_3 <= 1
 0 <= z_9_4 <= 1
 0 <= z_9_5 <= 1
 0 <= z_10_0 <= 1
 0 <= z_10_1 <= 1
 0 <= z_10_2 <= 1
 0 <= z_10_3 <= 1
 0 <= z_10_4 <= 1
 0 <= z_10_5 <= 1
 0 <= z_11_0 <= 1
 0 <= z_11_1 <= 1
 0 <= z_11_2 <= 1
 0 <= z_11_3 <= 1
 0 <= z_11_4 <= 1
 0 <= z_11_5 <= 1
 0 <= z_12_0 <= 1
 0 <= z_12_1 <= 1
 0 <= z_12_2 <= 1
 0 <= z_12_3 <= 1
 0 <= z_12_4 <= 1
 0 <= z_12_5 <= 1
 0 <= z_13_0 <= 1
 0 <= z_13_1 <= 1
 0 <= z_13_2 <= 1
 0 <= z_13_3 <= 1
 0 <= z_13_4 <= 1
 0 <= z_13_5 <= 1
      I_0_0 = 0
      I_1_0 = 40
 0 <= q_1_1 <= 10000000000
 0 <= q_1_2 <= 10000000000
 0 <= q_1_3 <= 10000000000
 0 <= q_1_4 <= 10000000000
 0 <= q_1_5 <= 10000000000
      I_2_0 = 7
 0 <= q_2_1 <= 10000000000
 0 <= q_2_2 <= 10000000000
 0 <= q_2_3 <= 10000000000
 0 <= q_2_4 <= 10000000000
 0 <= q_2_5 <= 10000000000
      I_3_0 = 12
 0 <= q_3_1 <= 10000000000
 0 <= q_3_2 <= 10000000000
 0 <= q_3_3 <= 10000000000
 0 <= q_3_4 <= 10000000000
 0 <= q_3_5 <= 10000000000
      I_4_0 = 52
 0 <= q_4_1 <= 10000000000
 0 <= q_4_2 <= 10000000000
 0 <= q_4_3 <= 10000000000
 0 <= q_4_4 <= 10000000000
 0 <= q_4_5 <= 10000000000
      I_5_0 = 90
 0 <= q_5_1 <= 10000000000
 0 <= q_5_2 <= 10000000000
 0 <= q_5_3 <= 10000000000
 0 <= q_5_4 <= 10000000000
 0 <= q_5_5 <= 10000000000
      I_6_0 = 44
 0 <= q_6_1 <= 10000000000
 0 <= q_6_2 <= 10000000000
 0 <= q_6_3 <= 10000000000
 0 <= q_6_4 <= 10000000000
 0 <= q_6_5 <= 10000000000
      I_7_0 = 60
 0 <= q_7_1 <= 10000000000
 0 <= q_7_2 <= 10000000000
 0 <= q_7_3 <= 10000000000
 0 <= q_7_4 <= 10000000000
 0 <= q_7_5 <= 10000000000
      I_8_0 = 20
 0 <= q_8_1 <= 10000000000
 0 <= q_8_2 <= 10000000000
 0 <= q_8_3 <= 10000000000
 0 <= q_8_4 <= 10000000000
 0 <= q_8_5 <= 10000000000
      I_9_0 = 92
 0 <= q_9_1 <= 10000000000
 0 <= q_9_2 <= 10000000000
 0 <= q_9_3 <= 10000000000
 0 <= q_9_4 <= 10000000000
 0 <= q_9_5 <= 10000000000
      I_10_0 = 14
 0 <= q_10_1 <= 10000000000
 0 <= q_10_2 <= 10000000000
 0 <= q_10_3 <= 10000000000
 0 <= q_10_4 <= 10000000000
 0 <= q_10_5 <= 10000000000
      I_11_0 = 22
 0 <= q_11_1 <= 10000000000
 0 <= q_11_2 <= 10000000000
 0 <= q_11_3 <= 10000000000
 0 <= q_11_4 <= 10000000000
 0 <= q_11_5 <= 10000000000
      I_12_0 = 18
 0 <= q_12_1 <= 10000000000
 0 <= q_12_2 <= 10000000000
 0 <= q_12_3 <= 10000000000
 0 <= q_12_4 <= 10000000000
 0 <= q_12_5 <= 10000000000
      I_13_0 = 105
 0 <= q_13_1 <= 10000000000
 0 <= q_13_2 <= 10000000000
 0 <= q_13_3 <= 10000000000
 0 <= q_13_4 <= 10000000000
 0 <= q_13_5 <= 10000000000
Binaries
 y_1  y_2  y_3  y_4  y_5  z_1_0  z_1_1  z_1_2  z_1_3  z_1_4  z_1_5  z_2_0 
 z_2_1  z_2_2  z_2_3  z_2_4  z_2_5  z_3_0  z_3_1  z_3_2  z_3_3  z_3_4  z_3_5 
 z_4_0  z_4_1  z_4_2  z_4_3  z_4_4  z_4_5  z_5_0  z_5_1  z_5_2  z_5_3  z_5_4 
 z_5_5  z_6_0  z_6_1  z_6_2  z_6_3  z_6_4  z_6_5  z_7_0  z_7_1  z_7_2  z_7_3 
 z_7_4  z_7_5  z_8_0  z_8_1  z_8_2  z_8_3  z_8_4  z_8_5  z_9_0  z_9_1  z_9_2 
 z_9_3  z_9_4  z_9_5  z_10_0  z_10_1  z_10_2  z_10_3  z_10_4  z_10_5  z_11_0 
 z_11_1  z_11_2  z_11_3  z_11_4  z_11_5  z_12_0  z_12_1  z_12_2  z_12_3 
 z_12_4  z_12_5  z_13_0  z_13_1  z_13_2  z_13_3  z_13_4  z_13_5 
End
